Models_gurobi/lp/F_ReLU1_Adv3.lp
\ Model M_1_3
\ LP format - for model browsing. Use MPS format to capture full model detail.
Minimize
  0.3 C5 - 0.1 C6 - 0.5 C7 + 0.3 C8 + 0 C9 + 0 C10 + 0 C11 + 0 C12 + 0.5 C13
   - 0.1 C14 + 0 C21 + 0 C22 + 0 C23 + 0.2 Constant + [ 0.4 C5 * C13
   - 0.8 C5 * C14 + 0.3 C6 * C13 - 1.2 C6 * C14 + 0.4 C7 * C13
   + 0.4 C7 * C14 - C8 * C13 - 0.4 C8 * C14 ] / 2 
Subject To
 R0: C0 <= 10.6
 R1: C0 >= -9.4
 R2: C1 <= 9.7
 R3: C1 >= -10.3
 R4: C2 <= 10.4
 R5: C2 >= -9.6
 R6: 0.3 C0 - 0.15 C1 + 0.3 C2 - C3 + C15 = 0.2
 R7: - 0.2 C0 - 0.5 C1 + 0.5 C2 - C4 + C16 = -0.1
 R8: 0.3 C3 + 0.3 C4 - C5 + C17 = -0.3
 R9: - 0.2 C3 - 0.2 C4 - C6 + C18 = 0.2
 R10: - 0.15 C3 - 0.15 C4 - C7 + C19 = -0.3
 R11: 0.6 C3 + 0.6 C4 - C8 + C20 = 0.1
 R12: C3 - 1500 C24 <= 0
 R13: C15 + 1500 C24 <= 1500
 R14: C15 >= 0
 R15: C15 <= 1500
 R16: C4 - 1500 C25 <= 0
 R17: C16 + 1500 C25 <= 1500
 R18: C16 >= 0
 R19: C16 <= 1500
 R20: C5 - 1500 C26 <= 0
 R21: C17 + 1500 C26 <= 1500
 R22: C17 >= 0
 R23: C17 <= 1500
 R24: C6 - 1500 C27 <= 0
 R25: C18 + 1500 C27 <= 1500
 R26: C18 >= 0
 R27: C18 <= 1500
 R28: C7 - 1500 C28 <= 0
 R29: C19 + 1500 C28 <= 1500
 R30: C19 >= 0
 R31: C19 <= 1500
 R32: C8 - 1500 C29 <= 0
 R33: C20 + 1500 C29 <= 1500
 R34: C20 >= 0
 R35: C20 <= 1500
 qc0: - 0.706 C13 + [ - 0.509 C5 * C13 - 0.047 C6 * C13 + 0.315 C7 * C13
   + 0.191 C8 * C13 ] >= 0
 qc1: - 0.603 C13 + [ - 0.612 C5 * C13 - 0.768 C6 * C13 + 0.006 C7 * C13
   + 0.294 C8 * C13 ] >= 0
 qc2: - 0.106 C14 + [ 0.091 C5 * C14 + 0.703 C6 * C14 + 0.315 C7 * C14
   - 0.109 C8 * C14 ] >= 0
 qc3: 0.615 C14 + [ 0.606 C5 * C14 + 0.7545 C6 * C14 + 0.006 C7 * C14
   - 0.315 C8 * C14 ] >= 0
Bounds
 C0 >= -1500
 C1 >= -1500
 C2 >= -1500
 C12 <= 1
 C13 <= 1
 C14 <= 1
 C24 <= 1
 C25 <= 1
 C26 <= 1
 C27 <= 1
 C28 <= 1
 C29 <= 1
 Constant = 1
End
